\ Model QCP
\ LP format - for model browsing. Use MPS format to capture full model detail.
Minimize
  z + y
Subject To
 Cut_0: z + [ 6 y ^2 ] >= 2274
 Cut_1: z + [ 0.6185567010309279 y ^2 ] >= 1472.164948453608
 Cut_2: z + [ 0.6185567010309279 y ^2 ] >= 1472.164948453608
 Cut_3: z + [ 0.6185567010309279 y ^2 ] >= 1472.164948453608
 Cut_4: z + [ 0.6185567010309279 y ^2 ] >= 1472.164948453608
 Cut_5: z + [ 0.6185567010309279 y ^2 ] >= 1472.164948453608
 Cut_6: z + [ 0.6185567010309279 y ^2 ] >= 1472.164948453608
 Cut_7: z + [ 0.6185567010309279 y ^2 ] >= 1472.164948453608
 Cut_8: z + [ 0.6185567010309279 y ^2 ] >= 1472.164948453608
 Cut_9: z + [ 0.6185567010309279 y ^2 ] >= 1472.164948453608
Bounds
 1380 <= z <= 1500
 11.35781669160055 <= y <= 15.84297951775486
End
